
        $ From http://www.csplib.org/Problems/prob009/data/helmut.pdf
        $ Problem number 112
        $ Sequence length : 25
        language ESSENCE' 1.0
        letting sizemaster be 380
        letting sizes be sequence(4,7,17,18,19,20,21,26,31,33,35,40,45,48,49,60,67,73,79,81,87,107,113,186,194)
        